n_res = 4;
rcap = [23, 27, 81, 94];
rtype = [1, 1, 2, 2];
n_tasks = 16;
modes = [ {1, 2, 3}, {4, 5, 6}, {7, 8, 9}, {10, 11, 12}, {13, 14, 15}, {16, 17, 18}, {19, 20, 21}, {22, 23, 24}, {25, 26, 27}, {28, 29, 30}, {31, 32, 33}, {34, 35, 36}, {37, 38, 39}, {40, 41, 42}, {43, 44, 45}, {46, 47, 48} ];
succ = [ {5, 7, 10}, {4, 5, 7}, {6, 9, 12}, {6, 9, 10}, {6, 8, 12}, {13, 14}, {8, 9, 11}, {14, 15, 16}, {13, 15}, {11, 13}, {12, 15, 16}, {14}, {16}, {}, {}, {} ];
n_opt = 48;
dur = [4, 5, 8, 1, 2, 6, 2, 4, 10, 1, 5, 10, 8, 8, 10, 2, 5, 8, 2, 3, 7, 2, 8, 9, 6, 6, 9, 2, 8, 8, 2, 5, 8, 1, 1, 10, 1, 6, 7, 2, 7, 10, 1, 6, 9, 4, 6, 8];
rreq = [|  6,  6,  5,  9,  6,  4,  5,  5,  5,  5,  5,  5,  7,  8,  6,  6,  5,  5,  8,  6,  6, 10,  9,  7,  3,  3,  1,  5,  5,  2,  5,  5,  5,  7,  6,  3,  7,  6,  3,  8,  7,  6,  5,  4,  3,  5,  5,  4
        | 10,  9,  9, 10,  7,  6,  7,  4,  2,  3,  3,  1,  8,  7,  6,  6,  5,  5,  9,  9,  9,  5,  4,  2,  5,  6,  5,  8,  7,  7,  6,  5,  1,  9,  9,  8,  4,  4,  4,  8,  8,  7,  9,  8,  5, 10,  4,  2
        |  7,  7,  4,  4,  3,  3,  9,  6,  5,  4,  3,  3,  9,  9,  8,  4,  4,  3,  7,  6,  4, 10,  7,  4,  3,  3,  2,  6,  4,  5,  8,  7,  6,  7,  5,  3,  5,  5,  4,  6,  4,  3,  3,  2,  2, 10,  7,  2
        | 10,  9,  9,  9,  8,  5,  6,  4,  2,  9,  5,  1,  8,  7,  6,  8,  8,  7,  7,  6,  4,  6,  5,  4,  9,  7,  5,  4,  2,  2,  8,  8,  8,  4,  6,  4,  6,  6,  5,  8,  5,  4,  2,  1,  1,  8,  8,  7 |];
